HUN,8,6,36
1,18,4,26,5,28,3,15,0,10,2,3
0,14,4,8,1,17,2,12,3,17,5,11
4,15,0,9,2,26,5,17,3,27,1,6
0,14,1,30,2,18,5,16,4,13,3,10
5,22,0,3,4,16,2,29,3,24,1,17
3,13,0,22,2,15,5,7,4,5,1,23
3,5,0,18,4,22,5,21,1,1,2,25
4,3,5,23,1,5,2,25,3,20,0,29
